p cnf 49 145
a 20 39 0
e 1 2 3 4 5 6 7 8 9 10 11 12 13 14 15 16 17 18 19 21 22 23 24 25 26 27 28 29 30 31 32 33 34 35 36 37 38 40 41 42 43 44 45 46 47 48 49 0
1 2 -3 0
-1 -2 -3 0
1 -2 3 0
-1 2 3 0
3 2 -4 0
-3 -2 -4 0
3 -2 4 0
-3 2 4 0
-5 3 0
-5 4 0
-3 -4 5 0
6 8 -9 0
-6 -8 -9 0
6 -8 9 0
-6 8 9 0
-10 6 0
-10 9 0
-6 -9 10 0
11 7 0
11 -10 0
-7 10 -11 0
6 11 -12 0
-6 -11 -12 0
6 -11 12 0
-6 11 12 0
13 5 0
13 12 0
-5 -12 -13 0
-15 1 0
-15 -14 0
-1 14 15 0
-17 -2 0
-17 7 0
2 -7 17 0
-16 17 -18 0
16 -17 -18 0
-16 -17 18 0
16 17 18 0
-15 18 -19 0
15 -18 -19 0
-15 -18 19 0
15 18 19 0
-10 20 -21 0
10 -20 -21 0
-10 -20 21 0
10 20 21 0
22 8 0
22 -7 0
-8 7 -22 0
23 -22 0
23 -2 0
22 2 -23 0
-21 -23 -24 0
21 23 -24 0
-21 23 24 0
21 -23 24 0
-25 2 -26 0
25 -2 -26 0
-25 -2 26 0
25 2 26 0
27 -22 0
27 -3 0
22 3 -27 0
28 8 0
28 27 0
-8 -27 -28 0
26 -28 -29 0
-26 28 -29 0
26 28 29 0
-26 -28 29 0
24 29 -30 0
-24 -29 -30 0
24 -29 30 0
-24 29 30 0
-32 31 0
-32 11 0
-31 -11 32 0
33 -30 0
33 32 0
30 -32 -33 0
34 -19 0
34 -33 0
19 33 -34 0
35 13 0
35 34 0
-13 -34 -35 0
36 -26 0
36 11 0
26 -11 -36 0
-37 -25 0
-37 6 0
25 -6 37 0
-38 -1 0
-38 37 0
1 -37 38 0
39 2 0
39 -17 0
-2 17 -39 0
-40 -8 0
-40 -39 0
8 39 40 0
-41 39 0
-41 40 0
-39 -40 41 0
42 38 0
42 41 0
-38 -41 -42 0
36 -42 -43 0
-36 42 -43 0
36 42 43 0
-36 -42 43 0
44 -27 0
44 3 0
27 -3 -44 0
-22 -44 -45 0
22 44 -45 0
-22 44 45 0
22 -44 45 0
46 43 0
46 -45 0
-43 45 -46 0
47 -22 0
47 -3 0
22 3 -47 0
-48 -46 0
-48 -47 0
46 47 48 0
-35 48 -49 0
35 -48 -49 0
-35 -48 49 0
35 48 49 0
-19 -4 -9 -36 -32 0
27 -2 33 -45 -46 -18 0
37 -7 12 -5 -40 0
-47 20 -11 42 -18 -49 0
-13 33 -45 17 0
-13 -32 21 19 1 27 34 -10 0
-18 39 10 -13 -45 0
45 -21 31 0
-36 18 -39 5 -23 0
-29 -6 -10 0
27 25 9 7 32 0
-18 26 28 -32 0
30 -24 36 -23 9 22 1 0
49 0
